N = 10;
H = 6;
T = 2;

avail = array3d(1..N, 1..H, 1..T, [10, 4, 1, 5, 8, 5, 3, 1, 3, 3, 10, 8, 7, 5, 0, 10, 3, 1, 10, 3, 0, 1, 7, 4, 5, 0, 10, 4, 4, 1, 3, 1, 7, 9, 6, 8, 6, 0, 8, 0, 0, 2, 0, 5, 6, 0, 10, 8, 2, 1, 8, 4, 1, 3, 2, 5, 3, 4, 6, 1, 8, 3, 5, 9, 1, 9, 1, 2, 5, 2, 6, 2, 9, 7, 7, 7, 7, 8, 4, 4, 5, 1, 2, 4, 10, 10, 0, 2, 8, 3, 10, 3, 5, 1, 4, 0, 7, 8, 5, 6, 0, 6, 2, 10, 1, 7, 6, 4, 2, 5, 1, 7, 0, 5, 5, 7, 10, 4, 5, 6]);

r = array2d(1..H, 1..T, [2, 1, 2, 1, 2, 0, 1, 3, 1, 3, 2, 4]);
